p cnf 386 460
5 -10 -15 21 22 0
5 -10 -15 21 -22 0
5 -10 -15 -21 23 0
5 -10 -15 -21 -23 0
-5 -1 10 24 25 0
-5 -1 10 24 -25 0
-5 -1 10 -24 26 0
-5 -1 10 -24 -26 0
16 2 20 27 28 0
16 2 20 27 -28 0
16 2 20 -27 29 0
16 2 20 -27 -29 0
-4 -15 -17 30 31 0
-4 -15 -17 30 -31 0
-4 -15 -17 -30 32 0
-4 -15 -17 -30 -32 0
7 8 -4 33 34 0
7 8 -4 33 -34 0
7 8 -4 -33 35 0
7 8 -4 -33 -35 0
6 15 14 36 37 0
6 15 14 36 -37 0
6 15 14 -36 38 0
6 15 14 -36 -38 0
-15 11 18 39 40 0
-15 11 18 39 -40 0
-15 11 18 -39 41 0
-15 11 18 -39 -41 0
6 -9 18 42 43 0
6 -9 18 42 -43 0
6 -9 18 -42 44 0
6 -9 18 -42 -44 0
8 -17 -1 45 46 0
8 -17 -1 45 -46 0
8 -17 -1 -45 47 0
8 -17 -1 -45 -47 0
18 -17 5 48 49 0
18 -17 5 48 -49 0
18 -17 5 -48 50 0
18 -17 5 -48 -50 0
-1 -4 -5 51 52 0
-1 -4 -5 51 -52 0
-1 -4 -5 -51 53 0
-1 -4 -5 -51 -53 0
-2 -8 -5 54 55 0
-2 -8 -5 54 -55 0
-2 -8 -5 -54 56 0
-2 -8 -5 -54 -56 0
-2 4 -1 57 58 0
-2 4 -1 57 -58 0
-2 4 -1 -57 59 0
-2 4 -1 -57 -59 0
5 17 -9 60 61 0
5 17 -9 60 -61 0
5 17 -9 -60 62 0
5 17 -9 -60 -62 0
3 -18 -16 63 64 0
3 -18 -16 63 -64 0
3 -18 -16 -63 65 0
3 -18 -16 -63 -65 0
17 -1 -18 66 67 0
17 -1 -18 66 -67 0
17 -1 -18 -66 68 0
17 -1 -18 -66 -68 0
-15 -17 -19 69 70 0
-15 -17 -19 69 -70 0
-15 -17 -19 -69 71 0
-15 -17 -19 -69 -71 0
-11 -17 20 72 73 0
-11 -17 20 72 -73 0
-11 -17 20 -72 74 0
-11 -17 20 -72 -74 0
-4 1 5 75 76 0
-4 1 5 75 -76 0
-4 1 5 -75 77 0
-4 1 5 -75 -77 0
12 -8 3 78 79 0
12 -8 3 78 -79 0
12 -8 3 -78 80 0
12 -8 3 -78 -80 0
-2 -12 -3 81 82 0
-2 -12 -3 81 -82 0
-2 -12 -3 -81 83 0
-2 -12 -3 -81 -83 0
11 7 14 84 85 0
11 7 14 84 -85 0
11 7 14 -84 86 0
11 7 14 -84 -86 0
6 17 5 87 88 0
6 17 5 87 -88 0
6 17 5 -87 89 0
6 17 5 -87 -89 0
-14 11 1 90 91 0
-14 11 1 90 -91 0
-14 11 1 -90 92 0
-14 11 1 -90 -92 0
4 16 15 93 94 0
4 16 15 93 -94 0
4 16 15 -93 95 0
4 16 15 -93 -95 0
-10 4 -20 96 97 0
-10 4 -20 96 -97 0
-10 4 -20 -96 98 0
-10 4 -20 -96 -98 0
9 13 19 99 100 0
9 13 19 99 -100 0
9 13 19 -99 101 0
9 13 19 -99 -101 0
-11 -8 1 102 103 0
-11 -8 1 102 -103 0
-11 -8 1 -102 104 0
-11 -8 1 -102 -104 0
-16 7 19 105 106 0
-16 7 19 105 -106 0
-16 7 19 -105 107 0
-16 7 19 -105 -107 0
-3 -9 -17 108 109 0
-3 -9 -17 108 -109 0
-3 -9 -17 -108 110 0
-3 -9 -17 -108 -110 0
6 -5 4 111 112 0
6 -5 4 111 -112 0
6 -5 4 -111 113 0
6 -5 4 -111 -113 0
-18 6 19 114 115 0
-18 6 19 114 -115 0
-18 6 19 -114 116 0
-18 6 19 -114 -116 0
-20 -18 8 117 118 0
-20 -18 8 117 -118 0
-20 -18 8 -117 119 0
-20 -18 8 -117 -119 0
-8 6 4 120 121 0
-8 6 4 120 -121 0
-8 6 4 -120 122 0
-8 6 4 -120 -122 0
-2 5 4 123 124 0
-2 5 4 123 -124 0
-2 5 4 -123 125 0
-2 5 4 -123 -125 0
-2 -7 -15 126 127 0
-2 -7 -15 126 -127 0
-2 -7 -15 -126 128 0
-2 -7 -15 -126 -128 0
-3 -12 8 129 130 0
-3 -12 8 129 -130 0
-3 -12 8 -129 131 0
-3 -12 8 -129 -131 0
8 1 15 132 133 0
8 1 15 132 -133 0
8 1 15 -132 134 0
8 1 15 -132 -134 0
-13 1 -8 135 136 0
-13 1 -8 135 -136 0
-13 1 -8 -135 137 0
-13 1 -8 -135 -137 0
-3 20 16 138 139 0
-3 20 16 138 -139 0
-3 20 16 -138 140 0
-3 20 16 -138 -140 0
-7 18 16 141 142 0
-7 18 16 141 -142 0
-7 18 16 -141 143 0
-7 18 16 -141 -143 0
-7 -11 -20 144 145 0
-7 -11 -20 144 -145 0
-7 -11 -20 -144 146 0
-7 -11 -20 -144 -146 0
-2 20 1 147 148 0
-2 20 1 147 -148 0
-2 20 1 -147 149 0
-2 20 1 -147 -149 0
18 -1 -10 150 151 0
18 -1 -10 150 -151 0
18 -1 -10 -150 152 0
18 -1 -10 -150 -152 0
-18 -1 -12 153 154 0
-18 -1 -12 153 -154 0
-18 -1 -12 -153 155 0
-18 -1 -12 -153 -155 0
-16 -19 10 156 157 0
-16 -19 10 156 -157 0
-16 -19 10 -156 158 0
-16 -19 10 -156 -158 0
-18 -3 -1 159 160 0
-18 -3 -1 159 -160 0
-18 -3 -1 -159 161 0
-18 -3 -1 -159 -161 0
-17 -18 19 162 163 0
-17 -18 19 162 -163 0
-17 -18 19 -162 164 0
-17 -18 19 -162 -164 0
-6 -12 7 165 166 0
-6 -12 7 165 -166 0
-6 -12 7 -165 167 0
-6 -12 7 -165 -167 0
7 -14 18 168 169 0
7 -14 18 168 -169 0
7 -14 18 -168 170 0
7 -14 18 -168 -170 0
-2 -17 19 171 172 0
-2 -17 19 171 -172 0
-2 -17 19 -171 173 0
-2 -17 19 -171 -173 0
10 -16 9 174 175 0
10 -16 9 174 -175 0
10 -16 9 -174 176 0
10 -16 9 -174 -176 0
-3 10 -7 177 178 0
-3 10 -7 177 -178 0
-3 10 -7 -177 179 0
-3 10 -7 -177 -179 0
-4 -15 19 180 181 0
-4 -15 19 180 -181 0
-4 -15 19 -180 182 0
-4 -15 19 -180 -182 0
6 -5 10 183 184 0
6 -5 10 183 -184 0
6 -5 10 -183 185 0
6 -5 10 -183 -185 0
12 13 -5 186 187 0
12 13 -5 186 -187 0
12 13 -5 -186 188 0
12 13 -5 -186 -188 0
19 -14 13 189 190 0
19 -14 13 189 -190 0
19 -14 13 -189 191 0
19 -14 13 -189 -191 0
15 3 -14 192 193 0
15 3 -14 192 -193 0
15 3 -14 -192 194 0
15 3 -14 -192 -194 0
-14 5 13 195 196 0
-14 5 13 195 -196 0
-14 5 13 -195 197 0
-14 5 13 -195 -197 0
-16 -9 -6 198 199 0
-16 -9 -6 198 -199 0
-16 -9 -6 -198 200 0
-16 -9 -6 -198 -200 0
-3 -12 -18 201 202 0
-3 -12 -18 201 -202 0
-3 -12 -18 -201 203 0
-3 -12 -18 -201 -203 0
-11 10 -8 204 205 0
-11 10 -8 204 -205 0
-11 10 -8 -204 206 0
-11 10 -8 -204 -206 0
-12 6 13 207 208 0
-12 6 13 207 -208 0
-12 6 13 -207 209 0
-12 6 13 -207 -209 0
-18 -16 1 210 211 0
-18 -16 1 210 -211 0
-18 -16 1 -210 212 0
-18 -16 1 -210 -212 0
7 -19 20 213 214 0
7 -19 20 213 -214 0
7 -19 20 -213 215 0
7 -19 20 -213 -215 0
-18 9 15 216 217 0
-18 9 15 216 -217 0
-18 9 15 -216 218 0
-18 9 15 -216 -218 0
3 -11 13 219 220 0
3 -11 13 219 -220 0
3 -11 13 -219 221 0
3 -11 13 -219 -221 0
-9 -7 -17 222 223 0
-9 -7 -17 222 -223 0
-9 -7 -17 -222 224 0
-9 -7 -17 -222 -224 0
7 11 15 225 226 0
7 11 15 225 -226 0
7 11 15 -225 227 0
7 11 15 -225 -227 0
-13 -1 3 228 229 0
-13 -1 3 228 -229 0
-13 -1 3 -228 230 0
-13 -1 3 -228 -230 0
16 1 19 231 232 0
16 1 19 231 -232 0
16 1 19 -231 233 0
16 1 19 -231 -233 0
12 -16 -6 234 235 0
12 -16 -6 234 -235 0
12 -16 -6 -234 236 0
12 -16 -6 -234 -236 0
-8 -7 -5 237 238 0
-8 -7 -5 237 -238 0
-8 -7 -5 -237 239 0
-8 -7 -5 -237 -239 0
4 -9 -14 240 241 0
4 -9 -14 240 -241 0
4 -9 -14 -240 242 0
4 -9 -14 -240 -242 0
-1 13 19 243 244 0
-1 13 19 243 -244 0
-1 13 19 -243 245 0
-1 13 19 -243 -245 0
14 6 2 246 247 0
14 6 2 246 -247 0
14 6 2 -246 248 0
14 6 2 -246 -248 0
-14 6 -11 249 250 0
-14 6 -11 249 -250 0
-14 6 -11 -249 251 0
-14 6 -11 -249 -251 0
5 9 -17 252 253 0
5 9 -17 252 -253 0
5 9 -17 -252 254 0
5 9 -17 -252 -254 0
9 -10 -5 255 256 0
9 -10 -5 255 -256 0
9 -10 -5 -255 257 0
9 -10 -5 -255 -257 0
-19 -20 -10 258 259 0
-19 -20 -10 258 -259 0
-19 -20 -10 -258 260 0
-19 -20 -10 -258 -260 0
-1 -13 2 261 262 0
-1 -13 2 261 -262 0
-1 -13 2 -261 263 0
-1 -13 2 -261 -263 0
8 -16 18 264 265 0
8 -16 18 264 -265 0
8 -16 18 -264 266 0
8 -16 18 -264 -266 0
-10 -7 6 267 268 0
-10 -7 6 267 -268 0
-10 -7 6 -267 269 0
-10 -7 6 -267 -269 0
8 3 6 270 271 0
8 3 6 270 -271 0
8 3 6 -270 272 0
8 3 6 -270 -272 0
9 -2 12 273 274 0
9 -2 12 273 -274 0
9 -2 12 -273 275 0
9 -2 12 -273 -275 0
6 12 -7 276 277 0
6 12 -7 276 -277 0
6 12 -7 -276 278 0
6 12 -7 -276 -278 0
-15 12 13 279 280 0
-15 12 13 279 -280 0
-15 12 13 -279 281 0
-15 12 13 -279 -281 0
9 17 6 282 283 0
9 17 6 282 -283 0
9 17 6 -282 284 0
9 17 6 -282 -284 0
-16 -13 -6 285 286 0
-16 -13 -6 285 -286 0
-16 -13 -6 -285 287 0
-16 -13 -6 -285 -287 0
-16 -7 20 288 289 0
-16 -7 20 288 -289 0
-16 -7 20 -288 290 0
-16 -7 20 -288 -290 0
-7 -20 14 291 292 0
-7 -20 14 291 -292 0
-7 -20 14 -291 293 0
-7 -20 14 -291 -293 0
294 295 297 301 309 0
294 295 297 301 -309 0
294 295 297 -301 310 0
294 295 297 -301 -310 0
294 295 -297 302 311 0
294 295 -297 302 -311 0
294 295 -297 -302 312 0
294 295 -297 -302 -312 0
294 -295 298 303 313 0
294 -295 298 303 -313 0
294 -295 298 -303 314 0
294 -295 298 -303 -314 0
294 -295 -298 304 315 0
294 -295 -298 304 -315 0
294 -295 -298 -304 316 0
294 -295 -298 -304 -316 0
-294 296 299 305 317 0
-294 296 299 305 -317 0
-294 296 299 -305 318 0
-294 296 299 -305 -318 0
-294 296 -299 306 319 0
-294 296 -299 306 -319 0
-294 296 -299 -306 320 0
-294 296 -299 -306 -320 0
-294 -296 300 307 321 0
-294 -296 300 307 -321 0
-294 -296 300 -307 322 0
-294 -296 300 -307 -322 0
-294 -296 -300 308 323 0
-294 -296 -300 308 -323 0
-294 -296 -300 -308 324 0
-294 -296 -300 -308 -324 0
325 326 328 332 340 0
325 326 328 332 -340 0
325 326 328 -332 341 0
325 326 328 -332 -341 0
325 326 -328 333 342 0
325 326 -328 333 -342 0
325 326 -328 -333 343 0
325 326 -328 -333 -343 0
325 -326 329 334 344 0
325 -326 329 334 -344 0
325 -326 329 -334 345 0
325 -326 329 -334 -345 0
325 -326 -329 335 346 0
325 -326 -329 335 -346 0
325 -326 -329 -335 347 0
325 -326 -329 -335 -347 0
-325 327 330 336 348 0
-325 327 330 336 -348 0
-325 327 330 -336 349 0
-325 327 330 -336 -349 0
-325 327 -330 337 350 0
-325 327 -330 337 -350 0
-325 327 -330 -337 351 0
-325 327 -330 -337 -351 0
-325 -327 331 338 352 0
-325 -327 331 338 -352 0
-325 -327 331 -338 353 0
-325 -327 331 -338 -353 0
-325 -327 -331 339 354 0
-325 -327 -331 339 -354 0
-325 -327 -331 -339 355 0
-325 -327 -331 -339 -355 0
356 357 359 363 371 0
356 357 359 363 -371 0
356 357 359 -363 372 0
356 357 359 -363 -372 0
356 357 -359 364 373 0
356 357 -359 364 -373 0
356 357 -359 -364 374 0
356 357 -359 -364 -374 0
356 -357 360 365 375 0
356 -357 360 365 -375 0
356 -357 360 -365 376 0
356 -357 360 -365 -376 0
356 -357 -360 366 377 0
356 -357 -360 366 -377 0
356 -357 -360 -366 378 0
356 -357 -360 -366 -378 0
-356 358 361 367 379 0
-356 358 361 367 -379 0
-356 358 361 -367 380 0
-356 358 361 -367 -380 0
-356 358 -361 368 381 0
-356 358 -361 368 -381 0
-356 358 -361 -368 382 0
-356 358 -361 -368 -382 0
-356 -358 362 369 383 0
-356 -358 362 369 -383 0
-356 -358 362 -369 384 0
-356 -358 362 -369 -384 0
-356 -358 -362 370 385 0
-356 -358 -362 370 -385 0
-356 -358 -362 -370 386 0
-356 -358 -362 -370 -386 0

